Maximize
 obj: 228172 x0 + 338386 x1 + 327202 x2 + 302353 x3 + 250943 x4 + 44610 x5 + 41757 x6 + 184199 x7 + 191236 x8 + 181683 x9 + 39639 x10 + 98007 x11 + 122086 x12 + 23933 x13 + 195541 x14 + 145946 x15 + 144849 x16 + 308925 x17 + 335658 x18 + 294901 x19 + 269804 x20 + 230885 x21 + 78765 x22 + 18939 x23 + 105849 x24 + 100682 x25 + 123082 x26 + 100029 x27 + 117415 x28 + 140397 x29 + 123460 x30 + 183182 x31 + 196873 x32 + 183148 x33 + 326289 x34 + 332751 x35 + 322286 x36 + 286402 x37 + 268951 x38 + 175368 x39 
Subject To
 c1:  x31 +  x32 +  x33  <= 1
 c2:  x34 +  x39  <= 1
 c3:  x28 +  x30  <= 1
 c4:  x11 +  x12  <= 1
 c5:  x39  <= 1
 c6:  x17 +  x18  <= 1
 c7:  x25 +  x26 +  x27  <= 1
 c8:  x3  <= 1
 c9:  x17 +  x20  <= 1
 c10:  x1 +  x18  <= 1
 c11:  x34 +  x36  <= 1
 c12:  x4  <= 1
 c13:  x3  <= 1
 c14:  x35  <= 1
 c15:  x0  <= 1
 c16:  x21  <= 1
 c17:  x8  <= 1
 c18:  x18  <= 1
 c19:  x9 +  x20  <= 1
 c20:  x35 +  x37  <= 1
 c21:  x21 +  x36  <= 1
 c22:  x34 +  x37  <= 1
 c23:  x35  <= 1
 c24:  x18  <= 1
 c25:  x37  <= 1
 c26:  x16  <= 1
 c27:  x19  <= 1
 c28:  x24  <= 1
 c29:  x25 +  x27  <= 1
 c30:  x21  <= 1
 c31:  x0 +  x3 +  x39  <= 1
 c32:  x6  <= 1
 c33:  x27 +  x39  <= 1
 c34:  x1 +  x14 +  x15  <= 1
 c35:  x38  <= 1
 c36:  x17 +  x18 +  x19 +  x20 +  x21  <= 1
 c37:  x20 +  x34 +  x38  <= 1
 c38:  x34 +  x35 +  x36 +  x37 +  x38 +  x39  <= 1
 c39:  x2  <= 1
 c40:  x31 +  x32  <= 1
 c41:  x25 +  x26  <= 1
 c42:  x32 +  x38  <= 1
 c43:  x3  <= 1
 c44:  x1  <= 1
 c45:  x12 +  x29  <= 1
 c46:  x23 +  x38  <= 1
 c47:  x0 +  x1 +  x2 +  x3 +  x4  <= 1
 c48:  x7 +  x8 +  x9  <= 1
 c49:  x11 +  x12  <= 1
 c50:  x14 +  x15 +  x16  <= 1
 c51:  x0 +  x2 +  x28 +  x29  <= 1
 c52:  x35  <= 1
 c53:  x3 +  x4 +  x19 +  x26  <= 1
 c54:  x14 +  x16  <= 1
 c55:  x0 +  x4 +  x11  <= 1
 c56:  x15  <= 1
 c57:  x38  <= 1
 c58:  x10  <= 1
 c59:  x0 +  x1 +  x36  <= 1
 c60:  x36  <= 1
 c61:  x19 +  x37  <= 1
 c62:  x1  <= 1
 c63:  x13 +  x17 +  x20 +  x21  <= 1
 c64:  x4  <= 1
 c65:  x17 +  x19  <= 1
 c66:  x7 +  x9 +  x22  <= 1
 c67:  x2  <= 1
 c68:  x2 +  x7 +  x8 +  x31 +  x33  <= 1
 c69:  x2 +  x30  <= 1
 c70:  x34 +  x35  <= 1
 c71:  x28 +  x29 +  x30  <= 1
 c72:  x4  <= 1
 c73:  x36  <= 1
 c74:  x5  <= 1
 c75:  x39  <= 1
 c76:  x37  <= 1
 c77:  x33  <= 1
Bounds
 0 <= x0 <= 1
 0 <= x1 <= 1
 0 <= x2 <= 1
 0 <= x3 <= 1
 0 <= x4 <= 1
 0 <= x5 <= 1
 0 <= x6 <= 1
 0 <= x7 <= 1
 0 <= x8 <= 1
 0 <= x9 <= 1
 0 <= x10 <= 1
 0 <= x11 <= 1
 0 <= x12 <= 1
 0 <= x13 <= 1
 0 <= x14 <= 1
 0 <= x15 <= 1
 0 <= x16 <= 1
 0 <= x17 <= 1
 0 <= x18 <= 1
 0 <= x19 <= 1
 0 <= x20 <= 1
 0 <= x21 <= 1
 0 <= x22 <= 1
 0 <= x23 <= 1
 0 <= x24 <= 1
 0 <= x25 <= 1
 0 <= x26 <= 1
 0 <= x27 <= 1
 0 <= x28 <= 1
 0 <= x29 <= 1
 0 <= x30 <= 1
 0 <= x31 <= 1
 0 <= x32 <= 1
 0 <= x33 <= 1
 0 <= x34 <= 1
 0 <= x35 <= 1
 0 <= x36 <= 1
 0 <= x37 <= 1
 0 <= x38 <= 1
 0 <= x39 <= 1
End